data/solutions/recovery/degenerate/intermediate/binding/degenerate_intermediate_instance38/37.sol
Elapsed time: 0.63
Upper bound: 293781.0
Planning weighted value: 16516743914.0
C[0]=293781.0
C[1]=293549.0
C[2]=293308.0
C[3]=293162.0
C[4]=293006.0
C[5]=292606.0
C[6]=291942.0
C[7]=291627.0
C[8]=291272.0
C[9]=290857.0
C[10]=289515.0
C[11]=285611.0
C[12]=284182.0
C[13]=0.0
C[14]=0.0
C[15]=0.0
y[0]=1
y[1]=11
y[2]=1
y[3]=12
y[4]=6
y[5]=7
y[6]=4
y[7]=10
y[8]=6
y[9]=10
y[10]=3
y[11]=7
y[12]=6
y[13]=6
y[14]=5
y[15]=3
y[16]=1
y[17]=10
y[18]=5
y[19]=1
y[20]=2
y[21]=5
y[22]=7
y[23]=3
y[24]=1
y[25]=12
y[26]=7
y[27]=8
y[28]=2
y[29]=3
y[30]=5
y[31]=12
y[32]=12
y[33]=1
y[34]=0
y[35]=9
y[36]=3
y[37]=6
y[38]=0
y[39]=2
y[40]=0
y[41]=8
y[42]=5
y[43]=0
y[44]=9
y[45]=11
y[46]=10
y[47]=11
y[48]=4
y[49]=0
y[50]=10
y[51]=12
y[52]=4
y[53]=9
y[54]=11
y[55]=9
y[56]=6
y[57]=2
y[58]=8
y[59]=3
y[60]=7
y[61]=4
y[62]=11
y[63]=8
y[64]=2
y[65]=9
